32      4       
12      14      17      11      
0       0       0       0       0       1       2       
5       4       4       9       1       1       3       
9       1       6       13      1       1       4       
8       6       1       1       1       1       5       
10      3       3       1       5       1       6       
7       6       1       4       1       2       7       14      
7       1       1       10      4       1       8       
3       5       6       1       7       2       9       11      
7       3       6       6       4       2       10      16      
8       2       1       1       1       2       12      19      
7       1       6       2       1       2       15      16      
6       12      3       1       3       1       13      
1       4       9       3       1       1       15      
5       3       1       1       1       1       16      
8       1       1       1       1       1       17      
8       1       4       1       8       1       17      
10      1       2       10      1       1       18      
9       4       3       13      5       1       20      
10      3       6       6       1       1       20      
1       1       6       1       5       1       21      
3       1       3       5       1       1       22      
1       6       1       2       4       2       23      26      
3       1       6       5       1       2       24      28      
5       1       1       2       1       1       25      
9       1       6       10      2       1       27      
5       3       2       7       5       1       28      
10      5       6       1       2       1       29      
4       4       5       6       9       1       29      
1       4       1       1       3       1       30      
6       1       3       3       2       1       31      
7       1       1       1       1       1       32      
0       0       0       0       0       0       
